n = 100;
capacity = 100;
size = [80, 80, 79, 78, 77, 77, 75, 75, 75, 75, 74, 73, 73, 73, 72, 72, 72, 71, 71, 70, 68, 68, 67, 67, 66, 65, 62, 62, 61, 60, 59, 58, 58, 57, 57, 57, 57, 57, 56, 56, 55, 54, 54, 54, 52, 52, 51, 51, 50, 50, 50, 49, 46, 46, 46, 45, 44, 43, 42, 42, 42, 40, 40, 40, 39, 38, 37, 36, 35, 34, 34, 34, 33, 31, 29, 28, 28, 26, 26, 26, 25, 25, 25, 25, 24, 24, 24, 23, 23, 23, 23, 23, 22, 22, 21, 21, 21, 21, 20, 20];
